SECTION Graph
Nodes 246
Edges 468
E 1 12 5
E 1 217 1
E 1 218 1
E 2 4 1
E 2 221 1
E 3 5 1
E 3 217 1
E 3 218 1
E 3 220 11
E 4 6 1
E 4 220 1
E 5 197 43
E 5 216 1
E 5 219 11
E 6 219 1
E 7 15 5
E 7 195 1
E 8 16 5
E 8 195 1
E 8 197 1
E 8 216 43
E 9 10 1
E 9 196 11
E 10 197 11
E 10 219 43
E 11 17 1
E 11 209 5
E 11 212 1
E 12 214 1
E 12 215 1
E 13 14 1
E 13 188 1
E 13 189 1
E 13 192 11
E 14 190 1
E 14 193 11
E 14 210 43
E 15 191 1
E 15 194 1
E 16 193 1
E 16 194 1
E 16 213 43
E 17 19 1
E 17 208 5
E 17 211 1
E 18 20 1
E 18 211 11
E 18 214 1
E 18 215 1
E 19 190 43
E 19 207 5
E 19 210 1
E 20 193 43
E 20 210 11
E 20 213 1
E 21 22 2
E 21 27 1
E 21 175 1
E 21 184 9
E 22 28 1
E 22 177 2
E 22 185 9
E 23 185 6
E 23 186 2
E 24 175 9
E 24 184 1
E 25 177 9
E 25 185 2
E 25 186 6
E 25 204 48
E 26 162 2
E 26 165 6
E 27 28 2
E 27 163 9
E 27 172 1
E 28 165 9
E 28 176 2
E 29 163 1
E 29 172 9
E 30 162 6
E 30 165 2
E 30 170 3
E 30 176 9
E 31 42 5
E 31 160 1
E 31 161 1
E 32 34 1
E 32 168 1
E 32 173 2
E 33 35 1
E 33 160 1
E 33 161 1
E 33 167 11
E 34 36 1
E 34 167 1
E 34 171 2
E 35 153 18
E 35 159 1
E 35 166 11
E 36 141 43
E 36 166 1
E 36 169 2
E 37 45 5
E 37 120 1
E 37 121 1
E 38 46 5
E 38 120 1
E 38 125 1
E 38 148 23
E 39 40 1
E 39 122 11
E 39 137 1
E 39 140 1
E 40 125 11
E 40 141 1
E 40 154 23
E 41 47 1
E 41 157 12
E 42 157 1
E 42 158 1
E 43 44 1
E 43 110 11
E 44 112 11
E 44 132 23
E 45 113 1
E 46 112 1
E 46 113 1
E 46 144 23
E 47 48 12
E 47 49 1
E 48 50 1
E 48 157 1
E 48 158 1
E 49 50 12
E 49 127 23
E 49 133 18
E 49 138 14
E 50 145 18
E 50 156 1
E 51 105 7
E 51 106 1
E 51 115 6
E 52 115 5
E 52 119 1
E 52 124 1
E 52 131 6
E 53 115 1
E 53 119 5
E 54 106 6
E 54 115 1
E 54 117 1
E 54 124 5
E 55 101 1
E 55 104 5
E 56 104 6
E 56 105 1
E 56 106 7
E 56 111 11
E 57 104 1
E 57 105 6
E 58 101 5
E 58 104 1
E 58 107 13
E 58 108 13
E 59 60 2
E 59 67 1
E 59 97 1
E 59 100 9
E 60 68 1
E 60 99 1
E 60 102 9
E 61 62 2
E 61 100 6
E 61 103 1
E 61 114 17
E 62 102 6
E 62 107 11
E 63 97 9
E 63 100 1
E 63 103 6
E 64 99 9
E 64 102 1
E 64 109 17
E 65 66 2
E 65 73 5
E 65 92 1
E 65 94 6
E 66 74 5
E 66 93 1
E 66 95 6
E 67 68 2
E 67 94 9
E 67 96 1
E 68 95 9
E 68 98 1
E 69 92 6
E 69 94 1
E 69 96 9
E 70 93 6
E 70 95 1
E 70 98 9
E 71 72 2
E 71 77 1
E 71 85 1
E 71 88 9
E 72 78 1
E 72 87 1
E 72 89 9
E 73 74 2
E 73 88 6
E 73 90 1
E 74 89 6
E 74 91 1
E 75 85 9
E 75 88 1
E 75 90 6
E 76 87 9
E 76 89 1
E 76 91 6
E 77 78 2
E 77 82 9
E 77 84 1
E 78 83 9
E 78 86 1
E 79 82 1
E 79 84 9
E 80 83 1
E 80 86 9
E 81 173 179
E 82 83 2
E 84 85 1
E 86 87 1
E 88 89 2
E 90 92 5
E 91 93 5
E 94 95 2
E 96 97 1
E 98 99 1
E 100 102 2
E 101 103 16
E 103 111 17
E 106 108 1
E 107 109 1
E 107 116 6
E 108 117 6
E 108 123 10
E 109 118 6
E 110 112 1
E 110 113 1
E 111 114 1
E 111 123 7
E 112 142 23
E 113 120 5
E 114 116 2
E 114 126 7
E 116 118 1
E 116 128 7
E 117 127 5
E 117 136 13
E 118 129 7
E 119 130 6
E 120 122 1
E 121 122 1
E 121 137 11
E 122 125 1
E 123 126 1
E 124 127 1
E 124 133 6
E 125 150 23
E 126 128 2
E 128 129 1
E 128 136 6
E 129 138 6
E 130 131 1
E 130 132 1
E 131 133 1
E 131 134 1
E 132 134 1
E 132 142 11
E 133 135 1
E 134 135 1
E 134 143 11
E 135 145 11
E 136 138 1
E 137 139 1
E 139 140 1
E 139 164 41
E 140 141 1
E 140 179 56
E 141 174 47
E 142 143 1
E 142 144 1
E 143 145 1
E 143 146 1
E 144 146 1
E 144 148 5
E 145 147 1
E 146 147 1
E 146 149 5
E 147 151 5
E 147 156 18
E 148 149 1
E 148 150 1
E 149 151 1
E 149 152 1
E 150 152 1
E 150 154 11
E 151 153 1
E 151 159 18
E 152 153 1
E 152 155 11
E 154 155 1
E 155 166 19
E 156 158 1
E 156 159 5
E 158 160 5
E 159 160 1
E 161 168 11
E 162 164 3
E 163 165 2
E 164 170 6
E 166 167 1
E 167 168 1
E 169 171 1
E 169 198 54
E 170 174 2
E 170 178 9
E 171 173 1
E 171 199 54
E 172 175 1
E 173 201 54
E 174 181 9
E 176 177 1
E 176 178 3
E 177 180 3
E 178 179 1
E 178 180 1
E 179 181 1
E 179 182 1
E 180 182 1
E 180 187 20
E 181 183 1
E 181 198 43
E 182 183 1
E 182 188 20
E 183 190 20
E 183 200 43
E 184 185 2
E 186 187 8
E 186 207 48
E 187 188 1
E 187 189 1
E 188 190 1
E 189 191 11
E 191 192 1
E 192 193 1
E 192 194 1
E 194 195 5
E 195 196 1
E 196 197 1
E 198 199 1
E 198 200 1
E 199 201 1
E 199 202 1
E 200 202 1
E 200 204 9
E 201 203 1
E 202 203 1
E 202 205 9
E 203 206 9
E 204 205 1
E 204 207 6
E 205 206 1
E 205 208 6
E 206 209 6
E 207 208 1
E 208 209 1
E 210 211 1
E 211 212 1
E 212 214 11
E 213 215 1
E 213 216 5
E 215 217 5
E 216 217 1
E 218 221 11
E 219 220 1
E 220 221 1
E 1 222 100000
E 2 222 100000
E 3 223 100000
E 4 223 100000
E 5 224 100000
E 6 224 100000
E 7 225 100000
E 8 225 100000
E 9 225 100000
E 10 225 100000
E 11 226 100000
E 12 226 100000
E 13 227 100000
E 14 227 100000
E 15 227 100000
E 16 227 100000
E 17 228 100000
E 18 228 100000
E 19 229 100000
E 20 229 100000
E 21 230 100000
E 22 230 100000
E 23 230 100000
E 24 230 100000
E 25 230 100000
E 26 231 100000
E 27 231 100000
E 28 231 100000
E 29 231 100000
E 30 231 100000
E 31 232 100000
E 32 232 100000
E 33 233 100000
E 34 233 100000
E 35 234 100000
E 36 234 100000
E 37 235 100000
E 38 235 100000
E 39 235 100000
E 40 235 100000
E 41 236 100000
E 42 236 100000
E 43 237 100000
E 44 237 100000
E 45 237 100000
E 46 237 100000
E 47 238 100000
E 48 238 100000
E 49 239 100000
E 50 239 100000
E 51 240 100000
E 52 240 100000
E 53 240 100000
E 54 240 100000
E 55 241 100000
E 56 241 100000
E 57 241 100000
E 58 241 100000
E 59 242 100000
E 60 242 100000
E 61 242 100000
E 62 242 100000
E 63 242 100000
E 64 242 100000
E 65 243 100000
E 66 243 100000
E 67 243 100000
E 68 243 100000
E 69 243 100000
E 70 243 100000
E 71 244 100000
E 72 244 100000
E 73 244 100000
E 74 244 100000
E 75 244 100000
E 76 244 100000
E 77 245 100000
E 78 245 100000
E 79 245 100000
E 80 245 100000
E 81 246 100000
END

SECTION Terminals
Terminals 25
T 222
T 223
T 224
T 225
T 226
T 227
T 228
T 229
T 230
T 231
T 232
T 233
T 234
T 235
T 236
T 237
T 238
T 239
T 240
T 241
T 242
T 243
T 244
T 245
T 246
END

EOF
